c Sudoku solution
p cnf 729 0
219 0
226 0
264 0
271 0
298 0
315 0
324 0
333 0
496 0
528 0
569 0
585 0
593 0
617 0
635 0
658 0
679 0
737 0
127 0
232 0
763 0
774 0
788 0
478 0
825 0
834 0
862 0
954 0
968 0
818 0
111 0
138 0
348 0
646 0
661 0
531 0
439 0
516 0
414 0
481 0
577 0
544 0
552 0
422 0
623 0
913 0
712 0
936 0
142 0
756 0
351 0
159 0
857 0
997 0
287 0
367 0
166 0
447 0
453 0
465 0
243 0
255 0
175 0
183 0
194 0
873 0
886 0
972 0
989 0
795 0
891 0
945 0
849 0
741 0
729 0
921 0
376 0
684 0
692 0
382 0
399 0
